certificates/rado_a9_c265_N31.cnf
c Rad2 upper bound instance: x1 + 9*x2 - x3 = 265, interval [1,31]
p cnf 31 194
1 6 30 0
-1 -6 -30 0
1 15 31 0
-1 -15 -31 0
2 7 30 0
-2 -7 -30 0
2 16 31 0
-2 -16 -31 0
3 8 30 0
-3 -8 -30 0
3 17 31 0
-3 -17 -31 0
4 9 30 0
-4 -9 -30 0
4 18 31 0
-4 -18 -31 0
1 5 29 0
-1 -5 -29 0
5 10 30 0
-5 -10 -30 0
5 19 31 0
-5 -19 -31 0
2 6 29 0
-2 -6 -29 0
6 11 30 0
-6 -11 -30 0
6 20 31 0
-6 -20 -31 0
3 7 29 0
-3 -7 -29 0
7 12 30 0
-7 -12 -30 0
7 21 31 0
-7 -21 -31 0
4 8 29 0
-4 -8 -29 0
8 13 30 0
-8 -13 -30 0
8 22 31 0
-8 -22 -31 0
5 9 29 0
-5 -9 -29 0
9 14 30 0
-9 -14 -30 0
9 23 31 0
-9 -23 -31 0
6 10 29 0
-6 -10 -29 0
10 15 30 0
-10 -15 -30 0
10 24 31 0
-10 -24 -31 0
7 11 29 0
-7 -11 -29 0
11 16 30 0
-11 -16 -30 0
11 25 31 0
-11 -25 -31 0
8 12 29 0
-8 -12 -29 0
12 17 30 0
-12 -17 -30 0
12 26 31 0
-12 -26 -31 0
9 13 29 0
-9 -13 -29 0
13 18 30 0
-13 -18 -30 0
13 27 31 0
-13 -27 -31 0
1 14 28 0
-1 -14 -28 0
10 14 29 0
-10 -14 -29 0
14 19 30 0
-14 -19 -30 0
14 28 31 0
-14 -28 -31 0
2 15 28 0
-2 -15 -28 0
11 15 29 0
-11 -15 -29 0
15 20 30 0
-15 -20 -30 0
15 29 31 0
-15 -29 -31 0
3 16 28 0
-3 -16 -28 0
12 16 29 0
-12 -16 -29 0
16 21 30 0
-16 -21 -30 0
16 30 31 0
-16 -30 -31 0
4 17 28 0
-4 -17 -28 0
13 17 29 0
-13 -17 -29 0
17 22 30 0
-17 -22 -30 0
17 31 0
-17 -31 0
5 18 28 0
-5 -18 -28 0
14 18 29 0
-14 -18 -29 0
18 23 30 0
-18 -23 -30 0
6 19 28 0
-6 -19 -28 0
15 19 29 0
-15 -19 -29 0
19 24 30 0
-19 -24 -30 0
7 20 28 0
-7 -20 -28 0
16 20 29 0
-16 -20 -29 0
20 25 30 0
-20 -25 -30 0
8 21 28 0
-8 -21 -28 0
17 21 29 0
-17 -21 -29 0
21 26 30 0
-21 -26 -30 0
9 22 28 0
-9 -22 -28 0
18 22 29 0
-18 -22 -29 0
22 27 30 0
-22 -27 -30 0
1 23 27 0
-1 -23 -27 0
10 23 28 0
-10 -23 -28 0
19 23 29 0
-19 -23 -29 0
23 28 30 0
-23 -28 -30 0
2 24 27 0
-2 -24 -27 0
11 24 28 0
-11 -24 -28 0
20 24 29 0
-20 -24 -29 0
24 29 30 0
-24 -29 -30 0
3 25 27 0
-3 -25 -27 0
12 25 28 0
-12 -25 -28 0
21 25 29 0
-21 -25 -29 0
25 30 0
-25 -30 0
4 26 27 0
-4 -26 -27 0
13 26 28 0
-13 -26 -28 0
22 26 29 0
-22 -26 -29 0
26 30 31 0
-26 -30 -31 0
5 27 0
-5 -27 0
14 27 28 0
-14 -27 -28 0
23 27 29 0
-23 -27 -29 0
6 27 28 0
-6 -27 -28 0
15 28 0
-15 -28 0
24 28 29 0
-24 -28 -29 0
7 27 29 0
-7 -27 -29 0
16 28 29 0
-16 -28 -29 0
25 29 0
-25 -29 0
8 27 30 0
-8 -27 -30 0
17 28 30 0
-17 -28 -30 0
26 29 30 0
-26 -29 -30 0
9 27 31 0
-9 -27 -31 0
18 28 31 0
-18 -28 -31 0
27 29 31 0
-27 -29 -31 0
