certificates/rado_a9_c265_N31.drat
-30 -31 0
-31 0
17 0
30 0
-25 0
-12 0
-22 0
-28 0
11 0
29 0
26 0
0
